language ESSENCE' 1.0
$ loaded file: carseqdata/csplib-instance-39
letting numcars=200
letting numclasses=25
letting numoptions=5
letting optMax=[1, 2, 1, 2, 1]
letting windowSize=[2, 3, 3, 5, 5]
letting numberPerClass=[1, 1, 1, 2, 55, 5, 4, 5, 6, 2, 1, 4, 1, 22, 16, 16, 25, 6, 1, 4, 5, 6, 1, 6, 4]
letting optionsRequired=[[0, 0, 1, 1, 1], [1, 1, 1, 0, 1], [0, 1, 1, 1, 0], [0, 1, 1, 0, 1], [0, 1, 0, 0, 0], [0, 1, 0, 0, 1], [0, 0, 0, 1, 1], [1, 0, 1, 1, 0], [1, 0, 0, 0, 1], [1, 1, 1, 0, 0], [1, 1, 0, 1, 0], [1, 0, 1, 0, 0], [0, 1, 0, 1, 1], [1, 0, 0, 0, 0], [1, 1, 0, 0, 0], [0, 0, 1, 0, 0], [0, 0, 0, 1, 0], [0, 1, 1, 0, 0], [1, 0, 0, 1, 1], [0, 0, 1, 1, 0], [1, 0, 0, 1, 0], [0, 1, 0, 1, 0], [0, 0, 1, 0, 1], [0, 0, 0, 0, 1], [1, 1, 1, 0, 0]]
